courses = 5;
periods = 20;
rooms = 2;

available = array2d(1..courses,1..periods,
  [
   % 1 2 3 4 5 6 7 8 9 0 1 2 3 4 5 6 7 8 9 0  
     0,0,1,1,1,1,1,1,1,1,1,1,0,1,1,0,1,1,1,1,
     1,1,0,0,1,0,1,1,0,1,1,1,1,1,1,1,1,1,1,1,
     0,0,0,1,1,1,1,0,1,1,1,1,0,1,1,1,1,0,1,1,
     1,1,1,0,0,0,1,1,1,1,1,1,1,1,1,1,1,0,1,1,
     1,1,1,1,1,1,1,1,1,1,1,1,1,1,1,1,1,1,1,1,
  ]);


conflict = array2d(1..courses,1..courses,
  [
    0,1,0,0,1,
    1,0,0,1,0,
    0,0,0,0,1,
    0,1,0,0,1,
    1,0,1,1,0,
  ]);


requirement = [6,10,14,6,4];